knapPI_9_1000_1000_334
n 1000
c 575162
z 405343
time 1.4
1,283,1001,1
2,558,1000,1
3,372,1001,1
4,257,1000,1
5,918,1001,1
6,185,1000,1
7,569,1001,1
8,201,1000,1
9,288,1000,1
10,834,1001,1
11,663,1000,1
12,454,1000,1
13,180,1001,1
14,315,1000,1
15,160,1001,1
16,175,1000,1
17,790,1000,1
18,342,1000,1
19,94,1000,1
20,930,1000,1
21,941,1000,1
22,914,1000,1
23,420,1001,1
24,518,1000,1
25,441,1001,1
26,716,1000,1
27,175,1000,1
28,871,1001,1
29,949,1000,1
30,638,1000,1
31,946,1001,1
32,456,1000,1
33,414,1001,1
34,475,1001,1
35,510,1001,1
36,912,1000,1
37,256,1000,1
38,166,1001,1
39,10,1001,1
40,505,1001,1
41,761,1001,1
42,529,1001,1
43,847,1001,1
44,374,1000,1
45,946,1001,1
46,145,1001,1
47,553,1001,1
48,794,1000,1
49,710,1001,1
50,644,1001,1
51,907,1001,1
52,164,1000,1
53,722,1001,1
54,204,1000,1
55,648,1001,1
56,102,1000,1
57,11,1001,1
58,498,1001,1
59,839,1001,1
60,184,1000,1
61,33,1001,1
62,387,1001,1
63,683,1001,1
64,132,1001,1
65,429,1000,1
66,218,1000,1
67,264,1000,1
68,440,1001,1
69,778,1000,1
70,994,1001,1
71,143,1000,1
72,436,1001,1
73,191,1001,1
74,182,1000,1
75,772,1001,1
76,701,1001,1
77,244,1000,1
78,868,1000,1
79,661,1000,1
80,927,1000,1
81,921,1001,1
82,322,1000,1
83,169,1001,1
84,182,1000,1
85,281,1000,1
86,609,1000,1
87,774,1001,1
88,607,1001,1
89,559,1001,1
90,591,1001,1
91,650,1000,1
92,643,1000,1
93,75,1000,1
94,843,1000,1
95,872,1000,1
96,758,1000,1
97,724,1000,1
98,904,1001,1
99,261,1000,1
100,823,1001,1
101,603,1000,1
102,493,1000,1
103,75,1001,1
104,622,1000,1
105,723,1001,1
106,496,1001,1
107,243,1000,1
108,305,1001,1
109,556,1001,1
110,595,1001,1
111,907,1000,1
112,805,1000,1
113,956,1001,1
114,822,1001,1
115,474,1001,1
116,417,1001,1
117,596,1001,1
118,598,1000,1
119,149,1000,1
120,604,1001,1
121,782,1000,1
122,897,1001,1
123,905,1000,1
124,442,1000,1
125,659,1000,1
126,951,1000,1
127,62,1001,1
128,616,1001,1
129,598,1001,1
130,27,1000,1
131,755,1000,1
132,326,1000,1
133,1,1001,1
134,105,1000,1
135,404,1001,1
136,12,1001,1
137,181,1001,1
138,976,1001,1
139,662,1001,1
140,993,1000,1
141,660,1001,1
142,60,1000,1
143,233,1001,1
144,436,1000,1
145,361,1001,1
146,846,1000,1
147,682,1001,1
148,63,1001,1
149,569,1000,1
150,651,1000,1
151,356,1000,1
152,953,1001,1
153,565,1001,1
154,805,1000,1
155,919,1001,1
156,211,1000,1
157,408,1001,1
158,188,1000,1
159,692,1001,1
160,710,1000,1
161,993,1000,1
162,805,1001,1
163,399,1001,1
164,523,1001,1
165,876,1001,1
166,452,1001,1
167,745,1000,1
168,607,1001,1
169,196,1001,1
170,301,1001,1
171,890,1001,1
172,147,1000,1
173,297,1001,1
174,811,1000,1
175,682,1001,1
176,74,1000,1
177,875,1000,1
178,537,1001,1
179,521,1000,1
180,443,1000,1
181,605,1001,1
182,103,1000,1
183,26,1001,1
184,160,1000,1
185,206,1001,1
186,415,1000,1
187,244,1000,1
188,700,1001,1
189,664,1001,1
190,573,1001,1
191,954,1001,1
192,350,1000,1
193,145,1001,1
194,668,1001,1
195,96,1001,1
196,112,1001,1
197,306,1000,1
198,465,1001,1
199,32,1000,1
200,491,1000,1
201,434,1000,1
202,569,1000,1
203,330,1001,1
204,837,1000,1
205,377,1000,1
206,133,1001,1
207,42,1001,1
208,757,1001,1
209,677,1000,1
210,684,1001,1
211,699,1000,1
212,956,1001,1
213,656,1001,1
214,557,1001,1
215,175,1000,1
216,755,1001,1
217,306,1000,1
218,236,1000,1
219,391,1001,1
220,917,1000,1
221,488,1000,1
222,259,1001,1
223,406,1001,1
224,714,1000,1
225,159,1000,1
226,955,1000,1
227,609,1001,1
228,597,1000,1
229,123,1001,1
230,926,1001,1
231,889,1000,1
232,279,1001,1
233,316,1001,1
234,986,1000,1
235,739,1001,1
236,83,1000,1
237,755,1001,1
238,759,1000,1
239,873,1001,1
240,226,1001,1
241,288,1001,1
242,753,1001,1
243,924,1000,1
244,718,1001,1
245,371,1001,1
246,635,1001,1
247,253,1000,1
248,949,1000,1
249,644,1001,1
250,318,1001,1
251,320,1001,1
252,865,1001,1
253,114,1001,1
254,685,1001,1
255,445,1001,1
256,71,1000,1
257,372,1000,1
258,208,1000,1
259,936,1000,1
260,114,1000,1
261,935,1001,1
262,298,1001,1
263,54,1001,1
264,968,1000,1
265,526,1001,1
266,300,1001,1
267,482,1000,1
268,377,1001,1
269,459,1000,1
270,692,1001,1
271,810,1001,1
272,399,1001,1
273,830,1001,1
274,640,1000,1
275,65,1001,1
276,944,1000,1
277,240,1001,1
278,679,1000,1
279,301,1000,1
280,634,1001,1
281,888,1001,1
282,558,1000,1
283,344,1000,1
284,102,1001,1
285,300,1000,1
286,665,1001,1
287,99,1001,1
288,140,1001,1
289,634,1000,1
290,378,1001,1
291,533,1000,1
292,330,1001,1
293,323,1000,1
294,884,1001,1
295,74,1001,1
296,683,1001,1
297,559,1001,1
298,576,1000,1
299,798,1000,1
300,657,1000,1
301,669,1000,1
302,315,1001,1
303,186,1000,1
304,295,1001,1
305,750,1000,1
306,420,1001,1
307,397,1000,1
308,449,1000,1
309,589,1000,1
310,471,1000,1
311,548,1000,1
312,921,1000,1
313,477,1000,1
314,801,1000,1
315,135,1001,1
316,771,1000,1
317,442,1000,1
318,333,1001,1
319,856,1000,1
320,912,1000,1
321,145,1000,1
322,673,1001,1
323,66,1001,1
324,694,1000,1
325,4,1001,1
326,326,1001,1
327,993,1001,1
328,593,1000,1
329,687,1000,1
330,392,1001,1
331,89,1000,1
332,341,1000,1
333,355,1001,1
334,923,1001,1
335,751,1001,1
336,646,1000,1
337,539,1000,1
338,734,1000,1
339,363,1001,1
340,253,1000,1
341,496,1001,1
342,987,1001,1
343,898,1000,1
344,763,1000,1
345,367,1000,1
346,828,1000,1
347,48,1001,1
348,641,1001,1
349,779,1000,1
350,245,1000,1
351,430,1001,1
352,329,1001,1
353,372,1000,1
354,445,1000,1
355,958,1000,1
356,729,1001,1
357,585,1000,1
358,455,1000,1
359,230,1001,1
360,53,1000,1
361,367,1000,1
362,332,1001,1
363,782,1001,1
364,705,1001,1
365,208,1000,1
366,399,1000,1
367,913,1001,1
368,405,1001,1
369,708,1000,1
370,352,1001,1
371,207,1000,1
372,408,1001,1
373,249,1000,1
374,18,1001,1
375,504,1000,1
376,2,1001,1
377,260,1000,1
378,430,1001,1
379,226,1001,1
380,434,1001,1
381,529,1000,1
382,433,1000,1
383,377,1000,1
384,122,1000,1
385,479,1000,1
386,946,1001,1
387,6,1001,1
388,680,1000,1
389,126,1000,1
390,553,1001,1
391,930,1001,1
392,39,1000,1
393,601,1000,1
394,369,1000,1
395,915,1001,1
396,605,1001,1
397,352,1001,1
398,23,1000,1
399,406,1000,1
400,786,1001,1
401,333,1000,1
402,338,1001,1
403,918,1001,1
404,778,1001,1
405,831,1001,1
406,581,1000,1
407,742,1001,1
408,528,1000,1
409,693,1000,1
410,734,1001,1
411,571,1001,1
412,295,1000,1
413,590,1000,1
414,754,1000,1
415,457,1001,1
416,817,1001,1
417,880,1001,1
418,217,1001,1
419,445,1000,1
420,299,1000,1
421,406,1000,1
422,683,1001,1
423,97,1000,1
424,652,1000,1
425,910,1001,1
426,242,1000,1
427,330,1000,1
428,897,1001,1
429,494,1000,1
430,885,1000,1
431,349,1001,1
432,952,1001,1
433,537,1000,1
434,84,1001,1
435,24,1000,1
436,670,1000,1
437,694,1001,1
438,415,1001,1
439,967,1000,1
440,664,1000,1
441,385,1001,1
442,125,1001,1
443,695,1000,1
444,1,1000,1
445,495,1001,1
446,730,1000,1
447,899,1001,1
448,833,1000,1
449,489,1001,1
450,671,1000,1
451,264,1000,1
452,873,1001,1
453,571,1001,1
454,678,1001,1
455,823,1001,1
456,684,1001,1
457,314,1000,1
458,722,1001,1
459,165,1001,1
460,51,1001,1
461,979,1001,1
462,14,1001,1
463,26,1000,1
464,125,1000,1
465,497,1001,1
466,150,1000,1
467,511,1001,1
468,316,1000,1
469,406,1001,1
470,721,1000,1
471,362,1001,1
472,130,1001,1
473,367,1001,1
474,764,1001,1
475,456,1000,1
476,178,1001,1
477,705,1001,1
478,206,1000,1
479,856,1000,1
480,80,1001,1
481,146,1000,1
482,626,1000,1
483,968,1000,1
484,364,1001,1
485,482,1001,1
486,528,1001,1
487,63,1000,1
488,536,1000,1
489,10,1000,1
490,998,1000,1
491,44,1001,1
492,737,1001,1
493,596,1000,1
494,78,1000,1
495,202,1001,1
496,783,1000,1
497,5,1000,1
498,18,1000,1
499,852,1001,1
500,752,1001,1
501,73,1001,1
502,350,1001,1
503,582,1000,1
504,154,1000,1
505,380,1001,1
506,319,1000,1
507,52,1000,1
508,397,1000,1
509,386,1001,1
510,632,1001,1
511,734,1001,1
512,639,1000,1
513,797,1001,1
514,640,1000,1
515,168,1001,1
516,518,1000,1
517,901,1000,1
518,384,1001,1
519,539,1001,1
520,796,1000,1
521,21,1000,1
522,23,1001,1
523,60,1000,1
524,320,1001,1
525,232,1001,1
526,83,1001,1
527,958,1001,1
528,428,1000,1
529,363,1000,1
530,26,1000,1
531,688,1000,1
532,810,1000,1
533,707,1000,1
534,494,1000,1
535,555,1000,1
536,112,1001,1
537,11,1001,1
538,167,1000,1
539,826,1001,1
540,653,1000,1
541,176,1001,1
542,604,1001,1
543,392,1000,1
544,213,1000,1
545,754,1001,1
546,143,1000,1
547,717,1001,1
548,261,1000,1
549,386,1000,1
550,150,1000,1
551,824,1001,1
552,280,1000,1
553,825,1001,1
554,702,1000,1
555,850,1001,1
556,40,1000,1
557,205,1000,1
558,538,1001,1
559,111,1001,1
560,204,1001,1
561,105,1001,1
562,269,1000,1
563,381,1001,1
564,827,1000,1
565,476,1001,1
566,352,1000,1
567,993,1000,1
568,906,1000,1
569,182,1000,1
570,648,1001,1
571,280,1001,1
572,808,1001,1
573,550,1001,1
574,274,1001,1
575,287,1001,1
576,446,1000,1
577,933,1001,1
578,378,1001,1
579,735,1000,1
580,380,1000,1
581,919,1001,1
582,547,1001,1
583,688,1001,1
584,835,1000,1
585,444,1000,1
586,236,1001,1
587,252,1000,1
588,865,1000,1
589,402,1000,1
590,32,1001,1
591,281,1001,1
592,909,1000,1
593,56,1000,1
594,25,1001,1
595,813,1001,1
596,116,1001,1
597,697,1000,1
598,369,1001,1
599,504,1000,1
600,519,1001,1
601,715,1001,1
602,557,1001,1
603,654,1000,1
604,74,1000,1
605,167,1000,1
606,706,1001,1
607,541,1001,1
608,215,1000,1
609,705,1000,1
610,100,1000,1
611,930,1000,1
612,476,1000,1
613,769,1001,1
614,348,1000,1
615,599,1000,1
616,440,1001,1
617,735,1000,1
618,954,1001,1
619,499,1001,1
620,390,1001,1
621,15,1000,1
622,416,1000,1
623,872,1000,1
624,840,1001,1
625,619,1000,1
626,96,1001,1
627,719,1000,1
628,844,1001,1
629,967,1000,1
630,862,1000,1
631,500,1001,1
632,349,1001,1
633,526,1001,1
634,466,1000,1
635,407,1001,1
636,21,1001,1
637,498,1001,1
638,136,1000,1
639,341,1000,1
640,151,1000,1
641,395,1000,1
642,724,1001,1
643,889,1000,1
644,472,1000,1
645,203,1001,1
646,652,1001,1
647,872,1001,1
648,846,1000,1
649,18,1001,1
650,816,1001,1
651,243,1000,1
652,617,1001,1
653,920,1001,1
654,143,1001,1
655,47,1001,1
656,677,1001,1
657,812,1000,1
658,247,1000,1
659,842,1000,1
660,336,1000,1
661,528,1000,1
662,59,1000,1
663,834,1001,1
664,938,1001,1
665,56,1000,1
666,252,1001,1
667,264,1001,1
668,704,1000,1
669,841,1001,1
670,110,1001,1
671,475,1001,1
672,931,1000,1
673,612,1001,1
674,397,1001,1
675,651,1001,1
676,307,1000,1
677,778,1000,1
678,98,1000,1
679,817,1000,1
680,489,1000,1
681,520,1001,1
682,71,1000,1
683,192,1001,1
684,46,1000,1
685,910,1000,1
686,615,1001,1
687,138,1001,1
688,705,1001,1
689,23,1001,1
690,1000,1001,1
691,857,1001,1
692,74,1001,1
693,310,1001,1
694,816,1001,1
695,589,1000,1
696,656,1001,1
697,377,1000,1
698,943,1001,1
699,101,1000,1
700,218,1001,1
701,924,1000,1
702,186,1001,1
703,270,1000,1
704,200,1000,1
705,391,1001,1
706,375,1001,1
707,550,1001,1
708,923,1000,1
709,332,1001,1
710,165,1001,1
711,453,1000,1
712,572,1001,1
713,593,1000,1
714,876,1001,1
715,688,1001,1
716,250,1001,1
717,611,1000,1
718,679,1000,1
719,877,1001,1
720,630,1000,1
721,851,1000,1
722,259,1001,1
723,256,1000,1
724,334,1000,1
725,633,1000,1
726,423,1000,1
727,146,1000,1
728,784,1001,1
729,851,1001,1
730,761,1000,1
731,280,1000,1
732,689,1001,1
733,517,1001,1
734,293,1000,1
735,406,1001,1
736,15,1000,1
737,8,1000,1
738,607,1001,1
739,883,1000,1
740,602,1001,1
741,217,1000,1
742,655,1000,1
743,651,1000,1
744,85,1001,1
745,389,1000,1
746,590,1000,1
747,376,1001,1
748,583,1000,1
749,613,1001,1
750,255,1001,1
751,689,1000,1
752,67,1000,1
753,336,1001,1
754,131,1001,1
755,286,1001,1
756,531,1001,1
757,416,1001,1
758,191,1000,1
759,590,1001,1
760,479,1001,1
761,884,1001,1
762,991,1000,1
763,513,1000,1
764,677,1000,1
765,157,1001,1
766,674,1000,1
767,464,1001,1
768,976,1000,1
769,319,1001,1
770,130,1001,1
771,902,1001,1
772,778,1000,1
773,477,1001,1
774,724,1001,1
775,20,1000,1
776,118,1000,1
777,546,1001,1
778,795,1000,1
779,47,1001,1
780,315,1001,1
781,55,1001,1
782,83,1001,1
783,112,1000,1
784,250,1000,1
785,152,1000,1
786,892,1000,1
787,533,1001,1
788,937,1000,1
789,964,1001,1
790,269,1001,1
791,731,1000,1
792,733,1001,1
793,508,1000,1
794,157,1000,1
795,1,1001,1
796,582,1001,1
797,496,1000,1
798,660,1000,1
799,295,1000,1
800,523,1000,1
801,372,1001,1
802,562,1000,1
803,873,1000,1
804,129,1000,1
805,367,1001,1
806,475,1001,1
807,579,1001,1
808,123,1001,1
809,667,1001,1
810,975,1001,1
811,887,1001,1
812,744,1001,1
813,486,1000,1
814,176,1000,1
815,471,1000,1
816,310,1001,1
817,321,1000,1
818,816,1000,1
819,982,1000,1
820,691,1000,1
821,586,1001,1
822,941,1001,1
823,622,1001,1
824,525,1001,1
825,52,1001,1
826,971,1001,1
827,652,1001,1
828,748,1001,1
829,539,1001,1
830,568,1000,1
831,959,1000,1
832,287,1000,1
833,600,1001,1
834,545,1001,1
835,319,1000,1
836,885,1000,1
837,354,1000,1
838,63,1001,1
839,510,1000,1
840,457,1001,1
841,367,1001,1
842,103,1001,1
843,738,1001,1
844,643,1001,1
845,779,1000,1
846,225,1001,1
847,721,1000,1
848,514,1001,1
849,241,1000,1
850,623,1000,1
851,538,1000,1
852,336,1000,1
853,18,1000,1
854,121,1000,1
855,778,1001,1
856,521,1001,1
857,939,1001,1
858,377,1000,1
859,715,1000,1
860,891,1001,1
861,804,1000,1
862,768,1001,1
863,29,1000,1
864,77,1000,1
865,651,1000,1
866,766,1001,1
867,284,1000,1
868,768,1000,1
869,306,1001,1
870,475,1001,1
871,728,1001,1
872,105,1000,1
873,514,1000,1
874,860,1001,1
875,507,1000,1
876,263,1001,1
877,696,1001,1
878,943,1001,1
879,108,1001,1
880,936,1000,1
881,927,1000,1
882,883,1000,1
883,816,1001,1
884,31,1001,1
885,840,1001,1
886,364,1000,1
887,325,1001,1
888,403,1000,1
889,679,1000,1
890,763,1000,1
891,208,1000,1
892,395,1001,1
893,291,1001,1
894,193,1001,1
895,335,1001,1
896,427,1001,1
897,746,1000,1
898,820,1000,1
899,714,1000,1
900,711,1000,1
901,722,1001,1
902,882,1000,1
903,687,1001,1
904,834,1001,1
905,261,1000,1
906,207,1000,1
907,116,1001,1
908,428,1000,1
909,931,1000,1
910,529,1001,1
911,153,1001,1
912,812,1000,1
913,225,1001,1
914,601,1000,1
915,999,1000,1
916,606,1000,1
917,109,1000,1
918,239,1000,1
919,997,1000,1
920,62,1000,1
921,374,1001,1
922,764,1001,1
923,625,1000,1
924,358,1001,1
925,402,1000,1
926,777,1000,1
927,679,1000,1
928,296,1001,1
929,686,1001,1
930,498,1001,1
931,816,1000,1
932,1,1001,1
933,482,1000,1
934,985,1001,1
935,16,1000,1
936,701,1000,1
937,321,1000,1
938,224,1001,1
939,359,1001,1
940,309,1001,1
941,733,1001,1
942,650,1001,1
943,891,1001,1
944,710,1000,1
945,518,1001,1
946,707,1000,1
947,866,1001,1
948,705,1001,1
949,228,1001,1
950,468,1001,1
951,604,1001,1
952,714,1001,1
953,9,1001,1
954,679,1000,1
955,95,1000,1
956,22,1001,1
957,23,1001,1
958,134,1001,1
959,548,1000,1
960,205,1000,1
961,614,1000,1
962,791,1000,1
963,957,1001,1
964,794,1000,1
965,582,1000,1
966,624,1001,1
967,10,1000,1
968,11,1000,1
969,633,1001,1
970,856,1001,1
971,666,1000,1
972,269,1000,1
973,79,1000,1
974,108,1001,1
975,874,1000,1
976,245,1001,1
977,235,1000,1
978,282,1001,1
979,185,1001,1
980,771,1000,1
981,285,1000,1
982,108,1001,1
983,583,1000,1
984,410,1000,1
985,39,1000,1
986,354,1000,1
987,459,1001,1
988,141,1000,1
989,346,1000,1
990,842,1000,1
991,885,1000,1
992,620,1000,1
993,433,1001,1
994,685,1001,1
995,274,1001,1
996,555,1000,1
997,531,1000,1
998,814,1000,1
999,767,1001,1
1000,780,1000,1
